c description: tiling of 
c generator: CNFgen (0.9.0)
c copyright: (C) 2012-2020 Massimo Lauria <massimo.lauria@uniroma1.it>
c url: https://massimolauria.net/cnfgen
c
p cnf 20 245
-1 -2 0
-1 -9 0
-1 -12 0
-1 -20 0
-2 -9 0
-2 -12 0
-2 -20 0
-9 -12 0
-9 -20 0
-12 -20 0
1 2 9 12 20 0
-1 -4 0
-1 -5 0
-1 -8 0
-1 -13 0
-4 -5 0
-4 -8 0
-4 -13 0
-5 -8 0
-5 -13 0
-8 -13 0
1 4 5 8 13 0
-1 -12 0
-1 -13 0
-12 -13 0
1 12 13 0
-2 -3 0
-2 -4 0
-2 -5 0
-2 -6 0
-2 -7 0
-2 -8 0
-2 -10 0
-3 -4 0
-3 -5 0
-3 -6 0
-3 -7 0
-3 -8 0
-3 -10 0
-4 -5 0
-4 -6 0
-4 -7 0
-4 -8 0
-4 -10 0
-5 -6 0
-5 -7 0
-5 -8 0
-5 -10 0
-6 -7 0
-6 -8 0
-6 -10 0
-7 -8 0
-7 -10 0
-8 -10 0
2 3 4 5 6 7 8 10 0
-2 -3 0
-2 -6 0
-2 -7 0
-2 -14 0
-2 -16 0
-3 -6 0
-3 -7 0
-3 -14 0
-3 -16 0
-6 -7 0
-6 -14 0
-6 -16 0
-7 -14 0
-7 -16 0
-14 -16 0
2 3 6 7 14 16 0
-2 -4 0
-2 -9 0
-2 -10 0
-2 -13 0
-4 -9 0
-4 -10 0
-4 -13 0
-9 -10 0
-9 -13 0
-10 -13 0
2 4 9 10 13 0
-2 -4 0
-2 -10 0
-2 -12 0
-2 -14 0
-2 -15 0
-4 -10 0
-4 -12 0
-4 -14 0
-4 -15 0
-10 -12 0
-10 -14 0
-10 -15 0
-12 -14 0
-12 -15 0
-14 -15 0
2 4 10 12 14 15 0
-2 -9 0
-2 -15 0
-2 -17 0
-2 -20 0
-9 -15 0
-9 -17 0
-9 -20 0
-15 -17 0
-15 -20 0
-17 -20 0
2 9 15 17 20 0
-3 -4 0
-3 -5 0
-3 -7 0
-3 -9 0
-3 -12 0
-3 -15 0
-3 -19 0
-4 -5 0
-4 -7 0
-4 -9 0
-4 -12 0
-4 -15 0
-4 -19 0
-5 -7 0
-5 -9 0
-5 -12 0
-5 -15 0
-5 -19 0
-7 -9 0
-7 -12 0
-7 -15 0
-7 -19 0
-9 -12 0
-9 -15 0
-9 -19 0
-12 -15 0
-12 -19 0
-15 -19 0
3 4 5 7 9 12 15 19 0
-3 -6 0
-3 -18 0
-6 -18 0
3 6 18 0
-3 -7 0
-3 -11 0
-3 -12 0
-3 -15 0
-3 -20 0
-7 -11 0
-7 -12 0
-7 -15 0
-7 -20 0
-11 -12 0
-11 -15 0
-11 -20 0
-12 -15 0
-12 -20 0
-15 -20 0
3 7 11 12 15 20 0
-3 -9 0
-3 -10 0
-3 -14 0
-3 -16 0
-3 -18 0
-3 -20 0
-9 -10 0
-9 -14 0
-9 -16 0
-9 -18 0
-9 -20 0
-10 -14 0
-10 -16 0
-10 -18 0
-10 -20 0
-14 -16 0
-14 -18 0
-14 -20 0
-16 -18 0
-16 -20 0
-18 -20 0
3 9 10 14 16 18 20 0
-3 -11 0
-3 -14 0
-3 -16 0
-11 -14 0
-11 -16 0
-14 -16 0
3 11 14 16 0
-5 -6 0
-5 -9 0
-5 -19 0
-6 -9 0
-6 -19 0
-9 -19 0
5 6 9 19 0
-5 -9 0
-5 -10 0
-5 -13 0
-5 -19 0
-9 -10 0
-9 -13 0
-9 -19 0
-10 -13 0
-10 -19 0
-13 -19 0
5 9 10 13 19 0
-6 -10 0
-6 -14 0
-6 -18 0
-6 -19 0
-10 -14 0
-10 -18 0
-10 -19 0
-14 -18 0
-14 -19 0
-18 -19 0
6 10 14 18 19 0
-7 -8 0
-7 -9 0
-7 -10 0
-7 -14 0
-7 -20 0
-8 -9 0
-8 -10 0
-8 -14 0
-8 -20 0
-9 -10 0
-9 -14 0
-9 -20 0
-10 -14 0
-10 -20 0
-14 -20 0
7 8 9 10 14 20 0
-7 -8 0
-7 -10 0
-7 -13 0
-8 -10 0
-8 -13 0
-10 -13 0
7 8 10 13 0
-11 -16 0
-11 -20 0
-16 -20 0
11 16 20 0
-15 -17 0
15 17 0